1 5
2 5
3 7
4 3
5 2
6 11
7 11
8 11
9 8
10 4
11 8
12 12
13 4
14 1
15 10
16 8
17 13
18 12
19 12
20 1
21 1
22 12
23 12
24 13
25 4
26 12
27 11
28 4
29 2
30 1
31 8
32 4
33 4
34 10
35 10
36 1
37 1
38 12
39 1
40 1
41 4
42 4
43 13
44 4
45 1
46 12
47 4
48 4
49 2
50 12
51 10
52 1
53 1
54 12
55 12
56 8
57 12
58 1
59 13
60 2
61 13
62 12
63 2
64 1
65 2
66 1
67 13
68 4
69 4
70 4
71 13
72 10
73 13
74 13
75 13
76 13
77 4
78 1
79 10
80 10
81 1
82 8
83 12
84 4
85 9
86 2
87 13
88 12
89 2
90 4
91 13
92 12
93 2
94 2
95 9
96 9
97 2
98 9
99 9
100 9
101 9
102 9
103 6
104 6
105 11
106 11
107 7
108 7
109 1
110 1
111 1
112 10
113 12
114 12
115 8
116 8
117 4
118 4
119 10
120 3
121 4
122 4
123 2
124 13
125 1
126 2
127 4
128 13
129 1
130 7
131 12
132 8
133 6
134 10
135 3
136 5
137 12
138 6
139 8
